50 8
208 155
787 672
375 440
734 605
516 848
314 779
706 627
386 863
327 829
366 692
593 701
313 366
715 405
893 597
311 510
787 966
610 362
100 204
689 584
308 584
632 368
504 767
774 671
606 814
315 804
831 344
269 608
778 612
191 803
196 475
967 129
978 996
765 400
812 291
955 988
604 778
308 644
687 340
821 918
910 131
158 274
204 726
450 870
795 160
902 961
817 251
390 664
743 651
793 899
646 617
